NAME: small5
TYPE: TSP
COMMENT: Small Graph created for testing
DIMENSION: 5
EDGE_WEIGHT_TYPE: GEO
EDGE_WEIGHT_FORMAT: FUNCTION 
DISPLAY_DATA_TYPE: COORD_DISPLAY
NODE_COORD_SECTION
   1  16.00       96.00
   2  17.00       94.00
   3  20.00       92.00
   4  22.00       93.00
   5  25.00       97.00
EOF



